c WARNING: for repeatability, setting FPU to use double precision
d VARIABLES            74014        
d CONSTRAINTS          295174       
c ============================[ Problem Statistics ]=============================
c |                                                                             |
c |  Number of variables:         74014                                         |
c |  Number of clauses:          295174                                         |
c |  Parse time:                   0.05 s                                       |
c |                                                                             |
c ============================[ Search Statistics ]==============================
c | Conflicts |          ORIGINAL         |          LEARNT          | Progress |
c |           |    Vars  Clauses Literals |    Limit  Clauses Lit/Cl |          |
c ===============================================================================
c |       100 |   53932   243152   594699 |    89155      100     20 | 27.133 % |
c |       250 |   53932   243152   594699 |    98071      250     23 | 27.133 % |
c |       475 |   53932   243152   594699 |   107878      475     81 | 27.133 % |
c |       812 |   53932   243152   594699 |   118666      812    104 | 27.133 % |
c |      1318 |   53932   243152   594699 |   130532     1318    109 | 27.133 % |
c |      2077 |   53932   243152   594699 |   143586     2077    110 | 27.133 % |
c |      3216 |   53932   243152   594699 |   157944     3216     81 | 27.133 % |
c |      4924 |   53924   243104   594587 |   173739     4826     89 | 27.144 % |
c |      7486 |   53924   243104   594587 |   191113     7388    104 | 27.144 % |
c |     11330 |   53923   243094   594564 |   210224    11226    103 | 27.145 % |
c |     17096 |   53923   243094   594564 |   231247    16992    135 | 27.145 % |
c ===============================================================================
c restarts              : 63
c conflicts             : 17753          (3184 /sec)
c decisions             : 103336         (0.00 % random) (18531 /sec)
c propagations          : 32819739       (5885526 /sec)
c conflict literals     : 2510020        (10.34 % deleted)
d RESTARTS             63
d FAILURES             17753        
d NODES                103336       
d BACKTRACKS           103336       
d PROPAGATIONS         32819739     
d NOGOODSIZE           141.39 
d MEMORY               39.00 
d TIME                 5.57635 

s SATISFIABLE
